Route_0
50	50
50	75
50	75
50	75
119	88
186	118
275	260
295	254
326	261
333	266
384	231
487	229
450	189
417	140
389	161
386	145
382	141
281	65
220	25
110	60
50	50
Route_1
50	50
50	75
50	75
50	75
50	75
38	209
79	223
69	265
30	407
235	379
309	444
366	463
498	464
396	366
363	366
286	343
221	341
149	321
157	302
159	274
142	158
50	50
